
Gurobi 9.5.2 (win64) logging started Fri Nov 17 17:31:32 2023

Set parameter LogFile to value "./ccga_results/2023-11-17 17-31-30-838/MSP_TimeStampConvert_gurobi_log.txt"
Set parameter TimeLimit to value 7200

Gurobi 9.5.2 (win64) logging started Fri Nov 17 17:31:32 2023

Set parameter LogFile to value "./ccga_results/2023-11-17 17-31-30-838/MSP_TimeStampConvert_gurobi_log.txt"
Set parameter TimeLimit to value 7200
Gurobi Optimizer version 9.5.2 build v9.5.2rc0 (win64)
Thread count: 10 physical cores, 20 logical processors, using up to 20 threads
Optimize a model with 600 rows, 457 columns and 1482 nonzeros
Model fingerprint: 0xe63f0f4b
Variable types: 25 continuous, 432 integer (432 binary)
Coefficient statistics:
  Matrix range     [1e+00, 1e+00]
  Objective range  [1e+00, 1e+00]
  Bounds range     [1e+03, 1e+03]
  RHS range        [1e+00, 1e+00]
Found heuristic solution: objective 24000.000000

Explored 0 nodes (0 simplex iterations) in 0.00 seconds (0.00 work units)
Thread count was 1 (of 20 available processors)

Solution count 1: 24000 

Optimal solution found (tolerance 5.00e-02)
Best objective 2.400000000000e+04, best bound 2.400000000000e+04, gap 0.0000%

User-callback calls 21, time in user-callback 0.00 sec
Set parameter TimeLimit to value 7199
Gurobi Optimizer version 9.5.2 build v9.5.2rc0 (win64)
Thread count: 10 physical cores, 20 logical processors, using up to 20 threads
Optimize a model with 2149 rows, 961 columns and 6467 nonzeros
Model fingerprint: 0xe3c0fc48
Variable types: 481 continuous, 480 integer (480 binary)
Coefficient statistics:
  Matrix range     [4e-01, 8e+02]
  Objective range  [1e+00, 1e+00]
  Bounds range     [1e+03, 1e+03]
  RHS range        [1e+00, 1e+08]

MIP start from previous solve did not produce a new incumbent solution

Presolve removed 578 rows and 206 columns
Presolve time: 0.02s
Presolved: 1571 rows, 755 columns, 5267 nonzeros
Variable types: 404 continuous, 351 integer (351 binary)
Found heuristic solution: objective 18193.625003

Root relaxation: objective 2.000000e+04, 595 iterations, 0.01 seconds (0.01 work units)

    Nodes    |    Current Node    |     Objective Bounds      |     Work
 Expl Unexpl |  Obj  Depth IntInf | Incumbent    BestBd   Gap | It/Node Time

*    0     0               0    20000.000000 20000.0000  0.00%     -    0s

Explored 1 nodes (903 simplex iterations) in 0.04 seconds (0.05 work units)
Thread count was 20 (of 20 available processors)

Solution count 2: 20000 18193.6 

Optimal solution found (tolerance 5.00e-02)
Best objective 2.000000000000e+04, best bound 2.000000000000e+04, gap 0.0000%

User-callback calls 661, time in user-callback 0.00 sec
Gurobi Optimizer version 9.5.2 build v9.5.2rc0 (win64)
Thread count: 10 physical cores, 20 logical processors, using up to 20 threads
Optimize a model with 3698 rows, 1465 columns and 11452 nonzeros
Model fingerprint: 0x8b96de25
Variable types: 937 continuous, 528 integer (528 binary)
Coefficient statistics:
  Matrix range     [4e-01, 8e+02]
  Objective range  [1e+00, 1e+00]
  Bounds range     [1e+03, 1e+03]
  RHS range        [1e+00, 1e+08]

MIP start from previous solve did not produce a new incumbent solution

Presolve removed 1042 rows and 342 columns
Presolve time: 0.03s
Presolved: 2656 rows, 1123 columns, 9283 nonzeros
Variable types: 792 continuous, 331 integer (331 binary)
Found heuristic solution: objective 12971.111111

Root relaxation: objective 1.825000e+04, 861 iterations, 0.01 seconds (0.01 work units)

    Nodes    |    Current Node    |     Objective Bounds      |     Work
 Expl Unexpl |  Obj  Depth IntInf | Incumbent    BestBd   Gap | It/Node Time

     0     0 18250.0000    0    4 12971.1111 18250.0000  40.7%     -    0s
H    0     0                    18103.611111 18250.0000  0.81%     -    0s

Explored 1 nodes (1659 simplex iterations) in 0.08 seconds (0.10 work units)
Thread count was 20 (of 20 available processors)

Solution count 2: 18103.6 12971.1 

Optimal solution found (tolerance 5.00e-02)
Best objective 1.810361111111e+04, best bound 1.825000000000e+04, gap 0.8086%

User-callback calls 623, time in user-callback 0.00 sec
Gurobi Optimizer version 9.5.2 build v9.5.2rc0 (win64)
Thread count: 10 physical cores, 20 logical processors, using up to 20 threads
Optimize a model with 5247 rows, 1969 columns and 16437 nonzeros
Model fingerprint: 0x3292100a
Variable types: 1393 continuous, 576 integer (576 binary)
Coefficient statistics:
  Matrix range     [4e-01, 8e+02]
  Objective range  [1e+00, 1e+00]
  Bounds range     [1e+03, 1e+03]
  RHS range        [1e+00, 1e+08]

MIP start from previous solve did not produce a new incumbent solution

Presolve removed 2144 rows and 695 columns
Presolve time: 0.05s
Presolved: 3103 rows, 1274 columns, 10875 nonzeros
Variable types: 973 continuous, 301 integer (301 binary)
Found heuristic solution: objective 11984.255696

Root relaxation: objective 1.586306e+04, 1248 iterations, 0.01 seconds (0.01 work units)

    Nodes    |    Current Node    |     Objective Bounds      |     Work
 Expl Unexpl |  Obj  Depth IntInf | Incumbent    BestBd   Gap | It/Node Time

     0     0 15863.0556    0    1 11984.2557 15863.0556  32.4%     -    0s
H    0     0                    15771.111111 15863.0556  0.58%     -    0s

Cutting planes:
  Gomory: 1
  Cover: 1
  Implied bound: 5
  Flow cover: 3

Explored 1 nodes (1459 simplex iterations) in 0.13 seconds (0.18 work units)
Thread count was 20 (of 20 available processors)

Solution count 2: 15771.1 11984.3 

Optimal solution found (tolerance 5.00e-02)
Best objective 1.577111111111e+04, best bound 1.586305555556e+04, gap 0.5830%

User-callback calls 845, time in user-callback 0.00 sec
Gurobi Optimizer version 9.5.2 build v9.5.2rc0 (win64)
Thread count: 10 physical cores, 20 logical processors, using up to 20 threads
Optimize a model with 6796 rows, 2473 columns and 21422 nonzeros
Model fingerprint: 0x2b9de7e0
Variable types: 1849 continuous, 624 integer (624 binary)
Coefficient statistics:
  Matrix range     [4e-01, 8e+02]
  Objective range  [1e+00, 1e+00]
  Bounds range     [1e+03, 1e+03]
  RHS range        [1e+00, 1e+08]

MIP start from previous solve did not produce a new incumbent solution

Presolve removed 2756 rows and 862 columns
Presolve time: 0.07s
Presolved: 4040 rows, 1611 columns, 14173 nonzeros
Variable types: 1353 continuous, 258 integer (258 binary)
Found heuristic solution: objective 10419.788127

Root relaxation: objective 1.259533e+04, 1924 iterations, 0.02 seconds (0.03 work units)

    Nodes    |    Current Node    |     Objective Bounds      |     Work
 Expl Unexpl |  Obj  Depth IntInf | Incumbent    BestBd   Gap | It/Node Time

     0     0 12595.3316    0   16 10419.7881 12595.3316  20.9%     -    0s
H    0     0                    12407.222222 12595.3316  1.52%     -    0s

Cutting planes:
  Gomory: 5
  Cover: 2
  Implied bound: 1
  MIR: 30
  Flow cover: 39
  Relax-and-lift: 1

Explored 1 nodes (2366 simplex iterations) in 0.20 seconds (0.26 work units)
Thread count was 20 (of 20 available processors)

Solution count 2: 12407.2 10419.8 

Optimal solution found (tolerance 5.00e-02)
Best objective 1.240722222222e+04, best bound 1.259533161388e+04, gap 1.5161%

User-callback calls 875, time in user-callback 0.00 sec
Set parameter TimeLimit to value 7198
Gurobi Optimizer version 9.5.2 build v9.5.2rc0 (win64)
Thread count: 10 physical cores, 20 logical processors, using up to 20 threads
Optimize a model with 8345 rows, 2977 columns and 26407 nonzeros
Model fingerprint: 0xe748a770
Variable types: 2305 continuous, 672 integer (672 binary)
Coefficient statistics:
  Matrix range     [4e-01, 8e+02]
  Objective range  [1e+00, 1e+00]
  Bounds range     [1e+03, 1e+03]
  RHS range        [1e+00, 1e+08]

MIP start from previous solve did not produce a new incumbent solution

Presolve removed 3404 rows and 1015 columns
Presolve time: 0.10s
Presolved: 4941 rows, 1962 columns, 16873 nonzeros
Variable types: 1733 continuous, 229 integer (226 binary)
Found heuristic solution: objective 8988.4515770

Root relaxation: objective 1.079533e+04, 2302 iterations, 0.03 seconds (0.04 work units)

    Nodes    |    Current Node    |     Objective Bounds      |     Work
 Expl Unexpl |  Obj  Depth IntInf | Incumbent    BestBd   Gap | It/Node Time

     0     0 10795.3316    0   15 8988.45158 10795.3316  20.1%     -    0s
H    0     0                    10607.222222 10795.3316  1.77%     -    0s

Cutting planes:
  Gomory: 6
  Cover: 2
  Implied bound: 9
  MIR: 29
  Flow cover: 29
  Relax-and-lift: 3

Explored 1 nodes (2563 simplex iterations) in 0.22 seconds (0.29 work units)
Thread count was 20 (of 20 available processors)

Solution count 2: 10607.2 8988.45 

Optimal solution found (tolerance 5.00e-02)
Best objective 1.060722222222e+04, best bound 1.079533161388e+04, gap 1.7734%

User-callback calls 908, time in user-callback 0.00 sec
Gurobi Optimizer version 9.5.2 build v9.5.2rc0 (win64)
Thread count: 10 physical cores, 20 logical processors, using up to 20 threads
Optimize a model with 9894 rows, 3481 columns and 31392 nonzeros
Model fingerprint: 0x6b133ee5
Variable types: 2761 continuous, 720 integer (720 binary)
Coefficient statistics:
  Matrix range     [4e-01, 8e+02]
  Objective range  [1e+00, 1e+00]
  Bounds range     [1e+03, 1e+03]
  RHS range        [1e+00, 1e+08]

MIP start from previous solve did not produce a new incumbent solution

Presolve removed 4605 rows and 1361 columns
Presolve time: 0.11s
Presolved: 5289 rows, 2120 columns, 18081 nonzeros
Variable types: 1902 continuous, 218 integer (216 binary)
Found heuristic solution: objective 7707.2222222

Root relaxation: objective 9.199882e+03, 2860 iterations, 0.03 seconds (0.03 work units)

    Nodes    |    Current Node    |     Objective Bounds      |     Work
 Expl Unexpl |  Obj  Depth IntInf | Incumbent    BestBd   Gap | It/Node Time

     0     0 9199.88184    0   21 7707.22222 9199.88184  19.4%     -    0s
H    0     0                    8746.1111111 9197.32037  5.16%     -    0s
     0     0 9197.32037    0   26 8746.11111 9197.32037  5.16%     -    0s
H    0     0                    8869.7222222 9197.32037  3.69%     -    0s

Cutting planes:
  Gomory: 1
  Cover: 2
  Implied bound: 1
  MIR: 26
  Flow cover: 18
  Relax-and-lift: 3

Explored 1 nodes (3422 simplex iterations) in 0.28 seconds (0.34 work units)
Thread count was 20 (of 20 available processors)

Solution count 3: 8869.72 8746.11 7707.22 

Optimal solution found (tolerance 5.00e-02)
Best objective 8.869722222222e+03, best bound 9.197320370417e+03, gap 3.6934%

User-callback calls 947, time in user-callback 0.00 sec
Gurobi Optimizer version 9.5.2 build v9.5.2rc0 (win64)
Thread count: 10 physical cores, 20 logical processors, using up to 20 threads
Optimize a model with 11443 rows, 3985 columns and 36377 nonzeros
Model fingerprint: 0x70ff9c8b
Variable types: 3217 continuous, 768 integer (768 binary)
Coefficient statistics:
  Matrix range     [4e-01, 8e+02]
  Objective range  [1e+00, 1e+00]
  Bounds range     [1e+03, 1e+03]
  RHS range        [1e+00, 1e+08]

MIP start from previous solve did not produce a new incumbent solution

Presolve removed 5823 rows and 1709 columns
Presolve time: 0.16s
Presolved: 5620 rows, 2276 columns, 19234 nonzeros
Variable types: 2064 continuous, 212 integer (210 binary)
Found heuristic solution: objective 6907.2222222

Root relaxation: objective 8.249882e+03, 2947 iterations, 0.04 seconds (0.04 work units)

    Nodes    |    Current Node    |     Objective Bounds      |     Work
 Expl Unexpl |  Obj  Depth IntInf | Incumbent    BestBd   Gap | It/Node Time

     0     0 8249.88184    0   17 6907.22222 8249.88184  19.4%     -    0s
H    0     0                    7754.1666667 8249.23339  6.38%     -    0s
     0     0 8249.23339    0   21 7754.16667 8249.23339  6.38%     -    0s
     0     0 8249.23339    0   21 7754.16667 8249.23339  6.38%     -    0s
H    0     0                    8094.7222222 8221.78848  1.57%     -    0s
     0     0 8221.78848    0   35 8094.72222 8221.78848  1.57%     -    0s

Cutting planes:
  Gomory: 3
  Cover: 2
  Implied bound: 1
  MIR: 52
  Flow cover: 41
  Relax-and-lift: 5

Explored 1 nodes (3548 simplex iterations) in 0.41 seconds (0.40 work units)
Thread count was 20 (of 20 available processors)

Solution count 3: 8094.72 7754.17 6907.22 

Optimal solution found (tolerance 5.00e-02)
Best objective 8.094722222222e+03, best bound 8.221788484928e+03, gap 1.5697%

User-callback calls 979, time in user-callback 0.00 sec
Set parameter TimeLimit to value 7197
Gurobi Optimizer version 9.5.2 build v9.5.2rc0 (win64)
Thread count: 10 physical cores, 20 logical processors, using up to 20 threads
Optimize a model with 12992 rows, 4489 columns and 41362 nonzeros
Model fingerprint: 0xcce67f73
Variable types: 3673 continuous, 816 integer (816 binary)
Coefficient statistics:
  Matrix range     [4e-01, 8e+02]
  Objective range  [1e+00, 1e+00]
  Bounds range     [1e+03, 1e+03]
  RHS range        [1e+00, 1e+08]

MIP start from previous solve did not produce a new incumbent solution

Presolve removed 6582 rows and 1859 columns
Presolve time: 0.19s
Presolved: 6410 rows, 2630 columns, 21904 nonzeros
Variable types: 2433 continuous, 197 integer (194 binary)
Found heuristic solution: objective 5056.6666667

Root relaxation: objective 5.347327e+03, 3472 iterations, 0.04 seconds (0.04 work units)

    Nodes    |    Current Node    |     Objective Bounds      |     Work
 Expl Unexpl |  Obj  Depth IntInf | Incumbent    BestBd   Gap | It/Node Time

     0     0 5347.32741    0   16 5056.66667 5347.32741  5.75%     -    0s
H    0     0                    5206.6666667 5344.04973  2.64%     -    0s
     0     0 5344.04973    0   36 5206.66667 5344.04973  2.64%     -    0s

Cutting planes:
  Gomory: 6
  Implied bound: 1
  MIR: 40
  Flow cover: 26
  Relax-and-lift: 4

Explored 1 nodes (3756 simplex iterations) in 0.34 seconds (0.40 work units)
Thread count was 20 (of 20 available processors)

Solution count 2: 5206.67 5056.67 

Optimal solution found (tolerance 5.00e-02)
Best objective 5.206666666667e+03, best bound 5.344049727035e+03, gap 2.6386%

User-callback calls 980, time in user-callback 0.00 sec
Set parameter TimeLimit to value 7195
Gurobi Optimizer version 9.5.2 build v9.5.2rc0 (win64)
Thread count: 10 physical cores, 20 logical processors, using up to 20 threads
Optimize a model with 14541 rows, 4993 columns and 46347 nonzeros
Model fingerprint: 0x6becbb0b
Variable types: 4129 continuous, 864 integer (864 binary)
Coefficient statistics:
  Matrix range     [4e-01, 8e+02]
  Objective range  [1e+00, 1e+00]
  Bounds range     [1e+03, 1e+03]
  RHS range        [1e+00, 1e+08]

MIP start from previous solve produced solution with objective 5206.67 (0.06s)
Loaded MIP start from previous solve with objective 5206.67

Presolve removed 7127 rows and 1979 columns
Presolve time: 0.18s
Presolved: 7414 rows, 3014 columns, 25301 nonzeros
Variable types: 2817 continuous, 197 integer (194 binary)

Root relaxation: objective 5.330544e+03, 3889 iterations, 0.05 seconds (0.04 work units)

    Nodes    |    Current Node    |     Objective Bounds      |     Work
 Expl Unexpl |  Obj  Depth IntInf | Incumbent    BestBd   Gap | It/Node Time

     0     0 5330.54399    0   16 5206.66667 5330.54399  2.38%     -    0s

Explored 1 nodes (4103 simplex iterations) in 0.34 seconds (0.50 work units)
Thread count was 20 (of 20 available processors)

Solution count 2: 5206.67 -5206.67 

Optimal solution found (tolerance 5.00e-02)
Best objective 5.206666666667e+03, best bound 5.330543991123e+03, gap 2.3792%

User-callback calls 967, time in user-callback 0.00 sec
Set parameter TimeLimit to value 7193
Gurobi Optimizer version 9.5.2 build v9.5.2rc0 (win64)
Thread count: 10 physical cores, 20 logical processors, using up to 20 threads
Optimize a model with 16090 rows, 5497 columns and 51332 nonzeros
Model fingerprint: 0xec37d0e8
Variable types: 4585 continuous, 912 integer (912 binary)
Coefficient statistics:
  Matrix range     [4e-01, 8e+02]
  Objective range  [1e+00, 1e+00]
  Bounds range     [1e+03, 1e+03]
  RHS range        [1e+00, 1e+08]

MIP start from previous solve produced solution with objective 5122.22 (0.08s)
Loaded MIP start from previous solve with objective 5122.22

Presolve removed 7672 rows and 2099 columns
Presolve time: 0.22s
Presolved: 8418 rows, 3398 columns, 28698 nonzeros
Variable types: 3201 continuous, 197 integer (194 binary)

Root relaxation: objective 5.299637e+03, 4573 iterations, 0.06 seconds (0.06 work units)

    Nodes    |    Current Node    |     Objective Bounds      |     Work
 Expl Unexpl |  Obj  Depth IntInf | Incumbent    BestBd   Gap | It/Node Time

     0     0 5299.63651    0   16 5122.22222 5299.63651  3.46%     -    0s

Explored 1 nodes (4744 simplex iterations) in 0.41 seconds (0.57 work units)
Thread count was 20 (of 20 available processors)

Solution count 2: 5122.22 -5122.22 

Optimal solution found (tolerance 5.00e-02)
Best objective 5.122222222222e+03, best bound 5.299636513335e+03, gap 3.4636%

User-callback calls 980, time in user-callback 0.00 sec
Set parameter TimeLimit to value 7191
Gurobi Optimizer version 9.5.2 build v9.5.2rc0 (win64)
Thread count: 10 physical cores, 20 logical processors, using up to 20 threads
Optimize a model with 17639 rows, 6001 columns and 56317 nonzeros
Model fingerprint: 0xeb316b52
Variable types: 5041 continuous, 960 integer (960 binary)
Coefficient statistics:
  Matrix range     [4e-01, 8e+02]
  Objective range  [1e+00, 1e+00]
  Bounds range     [1e+03, 1e+03]
  RHS range        [1e+00, 1e+08]

MIP start from previous solve produced solution with objective 5072.92 (0.08s)
Loaded MIP start from previous solve with objective 5072.92

Presolve removed 8217 rows and 2219 columns
Presolve time: 0.24s
Presolved: 9422 rows, 3782 columns, 32092 nonzeros
Variable types: 3585 continuous, 197 integer (194 binary)

Root relaxation: objective 5.257836e+03, 5285 iterations, 0.09 seconds (0.08 work units)

    Nodes    |    Current Node    |     Objective Bounds      |     Work
 Expl Unexpl |  Obj  Depth IntInf | Incumbent    BestBd   Gap | It/Node Time

     0     0 5257.83570    0   25 5072.91667 5257.83570  3.65%     -    0s

Explored 1 nodes (5456 simplex iterations) in 0.48 seconds (0.66 work units)
Thread count was 20 (of 20 available processors)

Solution count 1: 5072.92 

Optimal solution found (tolerance 5.00e-02)
Best objective 5.072916666667e+03, best bound 5.257835695043e+03, gap 3.6452%

User-callback calls 992, time in user-callback 0.00 sec
Set parameter TimeLimit to value 7188
Gurobi Optimizer version 9.5.2 build v9.5.2rc0 (win64)
Thread count: 10 physical cores, 20 logical processors, using up to 20 threads
Optimize a model with 19188 rows, 6505 columns and 61302 nonzeros
Model fingerprint: 0x2aac9a8d
Variable types: 5497 continuous, 1008 integer (1008 binary)
Coefficient statistics:
  Matrix range     [4e-01, 8e+02]
  Objective range  [1e+00, 1e+00]
  Bounds range     [1e+03, 1e+03]
  RHS range        [1e+00, 1e+08]

MIP start from previous solve produced solution with objective 5049.35 (0.11s)
Loaded MIP start from previous solve with objective 5049.35

Presolve removed 8762 rows and 2339 columns
Presolve time: 0.26s
Presolved: 10426 rows, 4166 columns, 35492 nonzeros
Variable types: 3969 continuous, 197 integer (194 binary)

Root relaxation: objective 5.257836e+03, 5585 iterations, 0.09 seconds (0.09 work units)

    Nodes    |    Current Node    |     Objective Bounds      |     Work
 Expl Unexpl |  Obj  Depth IntInf | Incumbent    BestBd   Gap | It/Node Time

     0     0 5257.83570    0   19 5049.35185 5257.83570  4.13%     -    0s

Explored 1 nodes (5911 simplex iterations) in 0.55 seconds (0.76 work units)
Thread count was 20 (of 20 available processors)

Solution count 2: 5049.35 -5049.35 

Optimal solution found (tolerance 5.00e-02)
Best objective 5.049351851852e+03, best bound 5.257835695043e+03, gap 4.1289%

User-callback calls 1000, time in user-callback 0.00 sec
Set parameter TimeLimit to value 7186
Gurobi Optimizer version 9.5.2 build v9.5.2rc0 (win64)
Thread count: 10 physical cores, 20 logical processors, using up to 20 threads
Optimize a model with 20737 rows, 7009 columns and 66287 nonzeros
Model fingerprint: 0xf14e6e34
Variable types: 5953 continuous, 1056 integer (1056 binary)
Coefficient statistics:
  Matrix range     [4e-01, 8e+02]
  Objective range  [1e+00, 1e+00]
  Bounds range     [1e+03, 1e+03]
  RHS range        [1e+00, 1e+08]

MIP start from previous solve produced solution with objective 5025.19 (0.10s)
Loaded MIP start from previous solve with objective 5025.19

Presolve removed 9307 rows and 2459 columns
Presolve time: 0.27s
Presolved: 11430 rows, 4550 columns, 38873 nonzeros
Variable types: 4353 continuous, 197 integer (194 binary)

Root relaxation: objective 5.256859e+03, 5873 iterations, 0.09 seconds (0.09 work units)

    Nodes    |    Current Node    |     Objective Bounds      |     Work
 Expl Unexpl |  Obj  Depth IntInf | Incumbent    BestBd   Gap | It/Node Time

     0     0 5256.85861    0   22 5025.18519 5256.85861  4.61%     -    0s

Explored 1 nodes (6207 simplex iterations) in 0.56 seconds (0.82 work units)
Thread count was 20 (of 20 available processors)

Solution count 2: 5025.19 -5025.19 

Optimal solution found (tolerance 5.00e-02)
Best objective 5.025185185185e+03, best bound 5.256858605752e+03, gap 4.6102%

User-callback calls 1000, time in user-callback 0.00 sec
Set parameter TimeLimit to value 7184
Gurobi Optimizer version 9.5.2 build v9.5.2rc0 (win64)
Thread count: 10 physical cores, 20 logical processors, using up to 20 threads
Optimize a model with 22286 rows, 7513 columns and 71272 nonzeros
Model fingerprint: 0xe6eaf609
Variable types: 6409 continuous, 1104 integer (1104 binary)
Coefficient statistics:
  Matrix range     [4e-01, 8e+02]
  Objective range  [1e+00, 1e+00]
  Bounds range     [1e+03, 1e+03]
  RHS range        [1e+00, 1e+08]

MIP start from previous solve produced solution with objective 5025.19 (0.11s)
Loaded MIP start from previous solve with objective 5025.19

Presolve removed 9852 rows and 2579 columns
Presolve time: 0.30s
Presolved: 12434 rows, 4934 columns, 42236 nonzeros
Variable types: 4737 continuous, 197 integer (194 binary)

Root relaxation: objective 5.253181e+03, 6810 iterations, 0.12 seconds (0.12 work units)

    Nodes    |    Current Node    |     Objective Bounds      |     Work
 Expl Unexpl |  Obj  Depth IntInf | Incumbent    BestBd   Gap | It/Node Time

     0     0 5253.18106    0   25 5025.18519 5253.18106  4.54%     -    0s

Explored 1 nodes (6968 simplex iterations) in 0.59 seconds (0.85 work units)
Thread count was 20 (of 20 available processors)

Solution count 2: 5025.19 -5025.19 

Optimal solution found (tolerance 5.00e-02)
Best objective 5.025185185185e+03, best bound 5.253181058540e+03, gap 4.5371%

User-callback calls 1011, time in user-callback 0.00 sec
Set parameter TimeLimit to value 7180
Gurobi Optimizer version 9.5.2 build v9.5.2rc0 (win64)
Thread count: 10 physical cores, 20 logical processors, using up to 20 threads
Optimize a model with 23835 rows, 8017 columns and 76257 nonzeros
Model fingerprint: 0xa7598aeb
Variable types: 6865 continuous, 1152 integer (1152 binary)
Coefficient statistics:
  Matrix range     [4e-01, 8e+02]
  Objective range  [1e+00, 1e+00]
  Bounds range     [1e+03, 1e+03]
  RHS range        [1e+00, 1e+08]

MIP start from previous solve produced solution with objective 5025.19 (0.12s)
Loaded MIP start from previous solve with objective 5025.19

Presolve removed 10397 rows and 2699 columns
Presolve time: 0.32s
Presolved: 13438 rows, 5318 columns, 45623 nonzeros
Variable types: 5121 continuous, 197 integer (194 binary)

Root relaxation: objective 5.253181e+03, 7144 iterations, 0.17 seconds (0.14 work units)

    Nodes    |    Current Node    |     Objective Bounds      |     Work
 Expl Unexpl |  Obj  Depth IntInf | Incumbent    BestBd   Gap | It/Node Time

     0     0 5253.18106    0   22 5025.18519 5253.18106  4.54%     -    0s

Explored 1 nodes (7748 simplex iterations) in 0.76 seconds (1.04 work units)
Thread count was 20 (of 20 available processors)

Solution count 2: 5025.19 -5025.19 

Optimal solution found (tolerance 5.00e-02)
Best objective 5.025185185185e+03, best bound 5.253181058540e+03, gap 4.5371%

User-callback calls 1030, time in user-callback 0.00 sec
Set parameter TimeLimit to value 7178
Gurobi Optimizer version 9.5.2 build v9.5.2rc0 (win64)
Thread count: 10 physical cores, 20 logical processors, using up to 20 threads
Optimize a model with 25384 rows, 8521 columns and 81242 nonzeros
Model fingerprint: 0xaaa32ec5
Variable types: 7321 continuous, 1200 integer (1200 binary)
Coefficient statistics:
  Matrix range     [4e-01, 8e+02]
  Objective range  [1e+00, 1e+00]
  Bounds range     [1e+03, 1e+03]
  RHS range        [1e+00, 1e+08]

MIP start from previous solve produced solution with objective 5011.85 (0.13s)
Loaded MIP start from previous solve with objective 5011.85

Presolve removed 10942 rows and 2819 columns
Presolve time: 0.35s
Presolved: 14442 rows, 5702 columns, 49016 nonzeros
Variable types: 5505 continuous, 197 integer (194 binary)

Root relaxation: objective 5.249086e+03, 8060 iterations, 0.15 seconds (0.16 work units)

    Nodes    |    Current Node    |     Objective Bounds      |     Work
 Expl Unexpl |  Obj  Depth IntInf | Incumbent    BestBd   Gap | It/Node Time

     0     0 5249.08607    0   19 5011.85185 5249.08607  4.73%     -    0s

Explored 1 nodes (8359 simplex iterations) in 0.73 seconds (1.07 work units)
Thread count was 20 (of 20 available processors)

Solution count 2: 5011.85 -5011.85 

Optimal solution found (tolerance 5.00e-02)
Best objective 5.011851851852e+03, best bound 5.249086073586e+03, gap 4.7335%

User-callback calls 1033, time in user-callback 0.00 sec
Set parameter TimeLimit to value 7175
Gurobi Optimizer version 9.5.2 build v9.5.2rc0 (win64)
Thread count: 10 physical cores, 20 logical processors, using up to 20 threads
Optimize a model with 26933 rows, 9025 columns and 86227 nonzeros
Model fingerprint: 0x3fcf0a6f
Variable types: 7777 continuous, 1248 integer (1248 binary)
Coefficient statistics:
  Matrix range     [4e-01, 8e+02]
  Objective range  [1e+00, 1e+00]
  Bounds range     [1e+03, 1e+03]
  RHS range        [1e+00, 1e+08]

MIP start from previous solve produced solution with objective 5011.85 (0.14s)
Loaded MIP start from previous solve with objective 5011.85

Presolve removed 11487 rows and 2939 columns
Presolve time: 0.37s
Presolved: 15446 rows, 6086 columns, 52409 nonzeros
Variable types: 5889 continuous, 197 integer (194 binary)

Root relaxation: objective 5.246377e+03, 8706 iterations, 0.19 seconds (0.20 work units)

    Nodes    |    Current Node    |     Objective Bounds      |     Work
 Expl Unexpl |  Obj  Depth IntInf | Incumbent    BestBd   Gap | It/Node Time

     0     0 5246.37676    0   22 5011.85185 5246.37676  4.68%     -    0s

Explored 1 nodes (9217 simplex iterations) in 0.78 seconds (1.15 work units)
Thread count was 20 (of 20 available processors)

Solution count 2: 5011.85 -5011.85 

Optimal solution found (tolerance 5.00e-02)
Best objective 5.011851851852e+03, best bound 5.246376756193e+03, gap 4.6794%

User-callback calls 1039, time in user-callback 0.00 sec
Set parameter TimeLimit to value 7172
Gurobi Optimizer version 9.5.2 build v9.5.2rc0 (win64)
Thread count: 10 physical cores, 20 logical processors, using up to 20 threads
Optimize a model with 28482 rows, 9529 columns and 91212 nonzeros
Model fingerprint: 0xbc9e752c
Variable types: 8233 continuous, 1296 integer (1296 binary)
Coefficient statistics:
  Matrix range     [4e-01, 8e+02]
  Objective range  [1e+00, 1e+00]
  Bounds range     [1e+03, 1e+03]
  RHS range        [1e+00, 1e+08]

MIP start from previous solve produced solution with objective 4986.67 (0.16s)
Loaded MIP start from previous solve with objective 4986.67

Presolve removed 12032 rows and 3059 columns
Presolve time: 0.39s
Presolved: 16450 rows, 6470 columns, 55804 nonzeros
Variable types: 6273 continuous, 197 integer (194 binary)

Root relaxation: objective 5.216037e+03, 8817 iterations, 0.16 seconds (0.17 work units)

    Nodes    |    Current Node    |     Objective Bounds      |     Work
 Expl Unexpl |  Obj  Depth IntInf | Incumbent    BestBd   Gap | It/Node Time

     0     0 5216.03700    0   22 4986.66667 5216.03700  4.60%     -    0s

Explored 1 nodes (9307 simplex iterations) in 0.90 seconds (1.30 work units)
Thread count was 20 (of 20 available processors)

Solution count 2: 4986.67 -4986.67 

Optimal solution found (tolerance 5.00e-02)
Best objective 4.986666666667e+03, best bound 5.216036997113e+03, gap 4.5997%

User-callback calls 1053, time in user-callback 0.00 sec
Set parameter TimeLimit to value 7165
Gurobi Optimizer version 9.5.2 build v9.5.2rc0 (win64)
Thread count: 10 physical cores, 20 logical processors, using up to 20 threads
Optimize a model with 30031 rows, 10033 columns and 96197 nonzeros
Model fingerprint: 0x3d8c15e1
Variable types: 8689 continuous, 1344 integer (1344 binary)
Coefficient statistics:
  Matrix range     [4e-01, 8e+02]
  Objective range  [1e+00, 1e+00]
  Bounds range     [1e+03, 1e+03]
  RHS range        [1e+00, 1e+08]

MIP start from previous solve produced solution with objective 4985.19 (0.16s)
Loaded MIP start from previous solve with objective 4985.19

Presolve removed 12577 rows and 3179 columns
Presolve time: 0.41s
Presolved: 17454 rows, 6854 columns, 59185 nonzeros
Variable types: 6657 continuous, 197 integer (194 binary)

Root relaxation: objective 5.215655e+03, 10029 iterations, 0.26 seconds (0.31 work units)

    Nodes    |    Current Node    |     Objective Bounds      |     Work
 Expl Unexpl |  Obj  Depth IntInf | Incumbent    BestBd   Gap | It/Node Time

     0     0 5215.65510    0   22 4985.18519 5215.65510  4.62%     -    0s

Explored 1 nodes (10519 simplex iterations) in 0.99 seconds (1.43 work units)
Thread count was 20 (of 20 available processors)

Solution count 2: 4985.19 -4985.19 

Optimal solution found (tolerance 5.00e-02)
Best objective 4.985185185185e+03, best bound 5.215655097115e+03, gap 4.6231%

User-callback calls 1063, time in user-callback 0.00 sec
Set parameter TimeLimit to value 7158
Gurobi Optimizer version 9.5.2 build v9.5.2rc0 (win64)
Thread count: 10 physical cores, 20 logical processors, using up to 20 threads
Optimize a model with 31580 rows, 10537 columns and 101182 nonzeros
Model fingerprint: 0x65f706b1
Variable types: 9145 continuous, 1392 integer (1392 binary)
Coefficient statistics:
  Matrix range     [4e-01, 8e+02]
  Objective range  [1e+00, 1e+00]
  Bounds range     [1e+03, 1e+03]
  RHS range        [1e+00, 1e+08]

MIP start from previous solve produced solution with objective 4985.19 (0.17s)
Loaded MIP start from previous solve with objective 4985.19

Presolve removed 13122 rows and 3299 columns
Presolve time: 0.43s
Presolved: 18458 rows, 7238 columns, 62098 nonzeros
Variable types: 7041 continuous, 197 integer (194 binary)

Root relaxation: objective 5.215377e+03, 10393 iterations, 0.24 seconds (0.27 work units)

    Nodes    |    Current Node    |     Objective Bounds      |     Work
 Expl Unexpl |  Obj  Depth IntInf | Incumbent    BestBd   Gap | It/Node Time

     0     0 5215.37676    0   24 4985.18519 5215.37676  4.62%     -    1s

Explored 1 nodes (11228 simplex iterations) in 1.03 seconds (1.53 work units)
Thread count was 20 (of 20 available processors)

Solution count 2: 4985.19 -4985.19 

Optimal solution found (tolerance 5.00e-02)
Best objective 4.985185185185e+03, best bound 5.215376761340e+03, gap 4.6175%

User-callback calls 1067, time in user-callback 0.00 sec
